c SAT Generator for power-law distributed variable frequencies
c -g u -v 20 -c 91 -k 3 -p 2.750000 -b 3.200000 -f /home/schmidt/Devel/ni-kop-sat/data/ensemble/ruf20-91/ruf20-91-405 -u 1 -U 1 -s 1545997054
p cnf 20 91
1 -5 16 0
-10 -11 -15 0
8 -10 -12 0
-5 -14 -18 0
1 8 -14 0
-4 -12 -13 0
13 17 -20 0
-1 -9 -18 0
1 -8 20 0
-3 6 13 0
-1 -6 -7 0
12 13 -15 0
1 -5 -13 0
3 -8 15 0
-7 11 -12 0
8 13 18 0
2 -11 16 0
9 11 -12 0
-10 16 -19 0
-7 -13 -19 0
7 9 -10 0
2 14 16 0
5 6 17 0
-3 17 19 0
-3 -5 -13 0
-8 10 18 0
-9 -10 17 0
1 -5 -11 0
3 -4 -20 0
-2 -13 -19 0
-6 -12 -13 0
-6 11 14 0
3 7 -19 0
-4 -8 -18 0
1 5 -20 0
-1 3 16 0
9 -15 -16 0
-7 -15 18 0
2 10 -17 0
-2 -6 -18 0
-3 4 -20 0
-8 -12 -14 0
-1 17 -18 0
1 -9 20 0
3 11 19 0
-9 -12 15 0
-10 11 14 0
1 3 -10 0
3 19 -20 0
3 4 19 0
-9 -11 20 0
-9 -18 -20 0
4 -7 -16 0
10 16 -19 0
-2 -10 11 0
7 -8 -14 0
-3 -14 -20 0
-6 -14 15 0
3 6 17 0
5 6 18 0
-2 -4 10 0
-2 -4 8 0
-5 13 -14 0
7 -12 -20 0
12 -15 -20 0
11 -17 -20 0
8 -15 18 0
-13 14 -17 0
-2 -3 14 0
7 -17 19 0
7 -10 -20 0
7 -17 -18 0
4 13 19 0
-5 9 -20 0
-9 -11 -14 0
1 -6 -20 0
16 17 19 0
2 12 16 0
-6 -8 -14 0
7 -10 -11 0
3 14 -15 0
-3 4 11 0
2 13 19 0
4 -8 -11 0
-1 4 7 0
2 -12 -15 0
5 -12 -15 0
-1 -11 -17 0
7 -14 -18 0
16 -17 20 0
4 -9 10 0
